25° run output:
{
    "Function": "kroA1000.tsp",
    "Problem dimension": [
        274,
        618,
        719,
        895,
        946,
        156,
        498,
        350,
        67,
        34,
        897,
        817,
        748,
        666,
        574,
        970,
        728,
        125,
        284,
        84,
        102,
        815,
        111,
        465,
        831,
        789,
        743,
        560,
        48,
        490,
        51,
        819,
        520,
        528,
        749,
        888,
        446,
        927,
        271,
        250,
        794,
        917,
        493,
        204,
        724,
        620,
        466,
        181,
        61,
        915,
        596,
        450,
        577,
        353,
        705,
        162,
        231,
        716,
        427,
        119,
        629,
        511,
        609,
        376,
        830,
        987,
        141,
        793,
        995,
        330,
        962,
        116,
        510,
        718,
        97,
        885,
        960,
        799,
        43,
        100,
        791,
        996,
        44,
        901,
        281,
        860,
        519,
        990,
        627,
        570,
        441,
        73,
        28,
        193,
        77,
        689,
        222,
        430,
        698,
        832,
        15,
        845,
        386,
        908,
        863,
        219,
        653,
        798,
        924,
        665,
        760,
        62,
        286,
        397,
        741,
        276,
        413,
        332,
        110,
        121,
        645,
        676,
        726,
        997,
        349,
        339,
        551,
        565,
        871,
        297,
        550,
        365,
        573,
        642,
        969,
        150,
        920,
        790,
        703,
        660,
        582,
        453,
        81,
        131,
        90,
        136,
        855,
        302,
        8,
        259,
        14,
        451,
        838,
        433,
        412,
        684,
        591,
        611,
        929,
        126,
        539,
        873,
        522,
        988,
        583,
        500,
        304,
        33,
        707,
        534,
        216,
        474,
        952,
        491,
        796,
        864,
        652,
        184,
        416,
        311,
        463,
        515,
        344,
        168,
        956,
        224,
        628,
        912,
        634,
        361,
        502,
        925,
        877,
        504,
        300,
        98,
        445,
        670,
        909,
        155,
        371,
        503,
        590,
        4,
        138,
        555,
        904,
        170,
        935,
        56,
        218,
        772,
        80,
        778,
        355,
        978,
        357,
        214,
        346,
        166,
        999,
        351,
        258,
        608,
        225,
        671,
        203,
        714,
        874,
        678,
        535,
        848,
        235,
        967,
        449,
        633,
        393,
        754,
        495,
        241,
        196,
        468,
        695,
        354,
        922,
        403,
        40,
        221,
        884,
        185,
        89,
        994,
        308,
        426,
        374,
        682,
        236,
        906,
        526,
        212,
        951,
        787,
        806,
        132,
        569,
        316,
        638,
        647,
        852,
        96,
        295,
        435,
        955,
        377,
        38,
        744,
        232,
        206,
        910,
        998,
        979,
        839,
        398,
        934,
        180,
        287,
        120,
        209,
        396,
        921,
        338,
        965,
        484,
        178,
        425,
        418,
        54,
        651,
        589,
        122,
        639,
        668,
        507,
        207,
        251,
        905,
        938,
        730,
        747,
        625,
        802,
        547,
        948,
        899,
        775,
        662,
        702,
        382,
        362,
        985,
        21,
        496,
        514,
        868,
        518,
        646,
        310,
        255,
        473,
        563,
        949,
        810,
        836,
        527,
        549,
        182,
        738,
        697,
        191,
        722,
        640,
        27,
        974,
        725,
        788,
        980,
        82,
        492,
        887,
        238,
        696,
        907,
        663,
        933,
        903,
        680,
        694,
        183,
        272,
        889,
        279,
        321,
        731,
        765,
        317,
        930,
        153,
        812,
        254,
        378,
        303,
        188,
        128,
        331,
        763,
        407,
        820,
        294,
        17,
        637,
        494,
        410,
        937,
        837,
        751,
        540,
        230,
        260,
        847,
        623,
        721,
        76,
        742,
        173,
        242,
        142,
        299,
        389,
        561,
        858,
        422,
        467,
        482,
        337,
        578,
        72,
        607,
        305,
        959,
        673,
        78,
        199,
        685,
        734,
        621,
        22,
        442,
        981,
        52,
        129,
        175,
        411,
        850,
        475,
        25,
        45,
        391,
        687,
        753,
        165,
        95,
        878,
        785,
        229,
        586,
        777,
        739,
        239,
        314,
        822,
        375,
        991,
        655,
        774,
        419,
        88,
        437,
        816,
        234,
        902,
        784,
        215,
        443,
        470,
        341,
        968,
        643,
        661,
        918,
        795,
        438,
        171,
        953,
        74,
        233,
        545,
        334,
        66,
        462,
        894,
        993,
        626,
        372,
        356,
        289,
        691,
        390,
        849,
        477,
        536,
        348,
        167,
        834,
        610,
        941,
        261,
        151,
        135,
        601,
        943,
        460,
        32,
        359,
        201,
        290,
        423,
        567,
        267,
        556,
        480,
        37,
        2,
        599,
        192,
        335,
        291,
        277,
        464,
        828,
        99,
        18,
        366,
        681,
        327,
        989,
        93,
        982,
        594,
        600,
        508,
        614,
        851,
        713,
        148,
        846,
        160,
        644,
        380,
        505,
        635,
        217,
        29,
        656,
        512,
        771,
        546,
        113,
        198,
        911,
        767,
        292,
        444,
        736,
        954,
        593,
        112,
        861,
        811,
        312,
        513,
        562,
        857,
        13,
        322,
        187,
        440,
        23,
        75,
        395,
        12,
        892,
        432,
        163,
        333,
        575,
        105,
        761,
        154,
        402,
        49,
        588,
        360,
        597,
        606,
        31,
        158,
        6,
        585,
        139,
        715,
        486,
        3,
        580,
        79,
        654,
        417,
        814,
        275,
        140,
        824,
        842,
        358,
        456,
        737,
        189,
        253,
        538,
        658,
        977,
        543,
        801,
        706,
        46,
        766,
        228,
        345,
        797,
        309,
        0,
        428,
        384,
        329,
        190,
        58,
        865,
        68,
        5,
        278,
        469,
        461,
        854,
        782,
        41,
        200,
        800,
        649,
        324,
        342,
        161,
        559,
        266,
        146,
        932,
        94,
        106,
        803,
        10,
        872,
        257,
        813,
        16,
        693,
        392,
        164,
        776,
        762,
        572,
        890,
        69,
        926,
        595,
        879,
        579,
        177,
        605,
        576,
        447,
        679,
        517,
        263,
        145,
        133,
        746,
        690,
        383,
        323,
        127,
        821,
        436,
        388,
        176,
        159,
        557,
        296,
        947,
        400,
        318,
        699,
        733,
        533,
        247,
        913,
        434,
        134,
        701,
        194,
        808,
        521,
        109,
        632,
        144,
        992,
        336,
        227,
        269,
        598,
        143,
        866,
        406,
        624,
        829,
        781,
        47,
        961,
        130,
        964,
        727,
        566,
        544,
        485,
        283,
        893,
        740,
        841,
        823,
        325,
        509,
        720,
        613,
        385,
        114,
        975,
        421,
        568,
        472,
        476,
        240,
        19,
        779,
        280,
        174,
        431,
        617,
        957,
        853,
        501,
        7,
        319,
        86,
        379,
        273,
        244,
        530,
        958,
        880,
        471,
        53,
        55,
        723,
        245,
        11,
        919,
        704,
        117,
        835,
        301,
        220,
        367,
        454,
        804,
        529,
        256,
        63,
        298,
        9,
        867,
        844,
        448,
        532,
        249,
        677,
        205,
        659,
        306,
        57,
        452,
        50,
        65,
        833,
        85,
        525,
        717,
        792,
        479,
        265,
        101,
        285,
        394,
        809,
        650,
        631,
        70,
        898,
        759,
        541,
        169,
        986,
        683,
        770,
        615,
        243,
        939,
        636,
        195,
        931,
        592,
        686,
        950,
        558,
        340,
        768,
        616,
        36,
        282,
        516,
        103,
        896,
        458,
        147,
        42,
        552,
        648,
        211,
        157,
        818,
        972,
        104,
        752,
        64,
        630,
        409,
        735,
        246,
        825,
        856,
        401,
        223,
        675,
        118,
        587,
        320,
        622,
        729,
        553,
        973,
        524,
        882,
        328,
        352,
        499,
        381,
        237,
        780,
        891,
        252,
        667,
        457,
        886,
        107,
        87,
        404,
        39,
        387,
        971,
        669,
        612,
        264,
        710,
        368,
        604,
        208,
        963,
        414,
        732,
        542,
        983,
        548,
        976,
        92,
        197,
        315,
        439,
        881,
        369,
        940,
        226,
        571,
        859,
        916,
        709,
        137,
        202,
        755,
        30,
        24,
        688,
        672,
        966,
        288,
        657,
        1,
        497,
        883,
        531,
        26,
        364,
        483,
        712,
        489,
        984,
        71,
        20,
        408,
        35,
        764,
        674,
        862,
        347,
        83,
        115,
        942,
        293,
        262,
        843,
        186,
        641,
        827,
        478,
        326,
        692,
        745,
        210,
        584,
        876,
        769,
        564,
        429,
        708,
        248,
        213,
        875,
        757,
        363,
        711,
        373,
        826,
        750,
        756,
        786,
        124,
        805,
        268,
        581,
        149,
        343,
        870,
        123,
        602,
        914,
        60,
        869,
        807,
        537,
        900,
        370,
        405,
        936,
        700,
        487,
        758,
        506,
        420,
        59,
        399,
        523,
        923,
        270,
        840,
        424,
        152,
        459,
        481,
        179,
        313,
        172,
        91,
        944,
        664,
        603,
        554,
        773,
        945,
        488,
        783,
        415,
        455,
        108,
        619,
        307,
        928
    ],
    "Global Optimum": 0,
    "Algorithm": "Genetic algorithm",
    "Parameters": {
        "population": 30,
        "offspring": 30,
        "mutation probability": 0.001,
        "crossover probability": 0.9
    },
    "Fitness": 1273196,
    "Solution": [
        274,
        618,
        719,
        895,
        946,
        156,
        498,
        350,
        67,
        34,
        897,
        817,
        748,
        666,
        574,
        970,
        728,
        125,
        284,
        84,
        102,
        815,
        111,
        465,
        831,
        789,
        743,
        560,
        48,
        490,
        51,
        819,
        520,
        528,
        749,
        888,
        446,
        927,
        271,
        250,
        794,
        917,
        493,
        204,
        724,
        620,
        466,
        181,
        61,
        915,
        596,
        450,
        577,
        353,
        705,
        162,
        231,
        716,
        427,
        119,
        629,
        511,
        609,
        376,
        830,
        987,
        141,
        793,
        995,
        330,
        962,
        116,
        510,
        718,
        97,
        885,
        960,
        799,
        43,
        100,
        791,
        996,
        44,
        901,
        281,
        860,
        519,
        990,
        627,
        570,
        441,
        73,
        28,
        193,
        77,
        689,
        222,
        430,
        698,
        832,
        15,
        845,
        386,
        908,
        863,
        219,
        653,
        798,
        924,
        665,
        760,
        62,
        286,
        397,
        741,
        276,
        413,
        332,
        110,
        121,
        645,
        676,
        726,
        997,
        349,
        339,
        551,
        565,
        871,
        297,
        550,
        365,
        573,
        642,
        969,
        150,
        920,
        790,
        703,
        660,
        582,
        453,
        81,
        131,
        90,
        136,
        855,
        302,
        8,
        259,
        14,
        451,
        838,
        433,
        412,
        684,
        591,
        611,
        929,
        126,
        539,
        873,
        522,
        988,
        583,
        500,
        304,
        33,
        707,
        534,
        216,
        474,
        952,
        491,
        796,
        864,
        652,
        184,
        416,
        311,
        463,
        515,
        344,
        168,
        956,
        224,
        628,
        912,
        634,
        361,
        502,
        925,
        877,
        504,
        300,
        98,
        445,
        670,
        909,
        155,
        371,
        503,
        590,
        4,
        138,
        555,
        904,
        170,
        935,
        56,
        218,
        772,
        80,
        778,
        355,
        978,
        357,
        214,
        346,
        166,
        999,
        351,
        258,
        608,
        225,
        671,
        203,
        714,
        874,
        678,
        535,
        848,
        235,
        967,
        449,
        633,
        393,
        754,
        495,
        241,
        196,
        468,
        695,
        354,
        922,
        403,
        40,
        221,
        884,
        185,
        89,
        994,
        308,
        426,
        374,
        682,
        236,
        906,
        526,
        212,
        951,
        787,
        806,
        132,
        569,
        316,
        638,
        647,
        852,
        96,
        295,
        435,
        955,
        377,
        38,
        744,
        232,
        206,
        910,
        998,
        979,
        839,
        398,
        934,
        180,
        287,
        120,
        209,
        396,
        921,
        338,
        965,
        484,
        178,
        425,
        418,
        54,
        651,
        589,
        122,
        639,
        668,
        507,
        207,
        251,
        905,
        938,
        730,
        747,
        625,
        802,
        547,
        948,
        899,
        775,
        662,
        702,
        382,
        362,
        985,
        21,
        496,
        514,
        868,
        518,
        646,
        310,
        255,
        473,
        563,
        949,
        810,
        836,
        527,
        549,
        182,
        738,
        697,
        191,
        722,
        640,
        27,
        974,
        725,
        788,
        980,
        82,
        492,
        887,
        238,
        696,
        907,
        663,
        933,
        903,
        680,
        694,
        183,
        272,
        889,
        279,
        321,
        731,
        765,
        317,
        930,
        153,
        812,
        254,
        378,
        303,
        188,
        128,
        331,
        763,
        407,
        820,
        294,
        17,
        637,
        494,
        410,
        937,
        837,
        751,
        540,
        230,
        260,
        847,
        623,
        721,
        76,
        742,
        173,
        242,
        142,
        299,
        389,
        561,
        858,
        422,
        467,
        482,
        337,
        578,
        72,
        607,
        305,
        959,
        673,
        78,
        199,
        685,
        734,
        621,
        22,
        442,
        981,
        52,
        129,
        175,
        411,
        850,
        475,
        25,
        45,
        391,
        687,
        753,
        165,
        95,
        878,
        785,
        229,
        586,
        777,
        739,
        239,
        314,
        822,
        375,
        991,
        655,
        774,
        419,
        88,
        437,
        816,
        234,
        902,
        784,
        215,
        443,
        470,
        341,
        968,
        643,
        661,
        918,
        795,
        438,
        171,
        953,
        74,
        233,
        545,
        334,
        66,
        462,
        894,
        993,
        626,
        372,
        356,
        289,
        691,
        390,
        849,
        477,
        536,
        348,
        167,
        834,
        610,
        941,
        261,
        151,
        135,
        601,
        943,
        460,
        32,
        359,
        201,
        290,
        423,
        567,
        267,
        556,
        480,
        37,
        2,
        599,
        192,
        335,
        291,
        277,
        464,
        828,
        99,
        18,
        366,
        681,
        327,
        989,
        93,
        982,
        594,
        600,
        508,
        614,
        851,
        713,
        148,
        846,
        160,
        644,
        380,
        505,
        635,
        217,
        29,
        656,
        512,
        771,
        546,
        113,
        198,
        911,
        767,
        292,
        444,
        736,
        954,
        593,
        112,
        861,
        811,
        312,
        513,
        562,
        857,
        13,
        322,
        187,
        440,
        23,
        75,
        395,
        12,
        892,
        432,
        163,
        333,
        575,
        105,
        761,
        154,
        402,
        49,
        588,
        360,
        597,
        606,
        31,
        158,
        6,
        585,
        139,
        715,
        486,
        3,
        580,
        79,
        654,
        417,
        814,
        275,
        140,
        824,
        842,
        358,
        456,
        737,
        189,
        253,
        538,
        658,
        977,
        543,
        801,
        706,
        46,
        766,
        228,
        345,
        797,
        309,
        0,
        428,
        384,
        329,
        190,
        58,
        865,
        68,
        5,
        278,
        469,
        461,
        854,
        782,
        41,
        200,
        800,
        649,
        324,
        342,
        161,
        559,
        266,
        146,
        932,
        94,
        106,
        803,
        10,
        872,
        257,
        813,
        16,
        693,
        392,
        164,
        776,
        762,
        572,
        890,
        69,
        926,
        595,
        879,
        579,
        177,
        605,
        576,
        447,
        679,
        517,
        263,
        145,
        133,
        746,
        690,
        383,
        323,
        127,
        821,
        436,
        388,
        176,
        159,
        557,
        296,
        947,
        400,
        318,
        699,
        733,
        533,
        247,
        913,
        434,
        134,
        701,
        194,
        808,
        521,
        109,
        632,
        144,
        992,
        336,
        227,
        269,
        598,
        143,
        866,
        406,
        624,
        829,
        781,
        47,
        961,
        130,
        964,
        727,
        566,
        544,
        485,
        283,
        893,
        740,
        841,
        823,
        325,
        509,
        720,
        613,
        385,
        114,
        975,
        421,
        568,
        472,
        476,
        240,
        19,
        779,
        280,
        174,
        431,
        617,
        957,
        853,
        501,
        7,
        319,
        86,
        379,
        273,
        244,
        530,
        958,
        880,
        471,
        53,
        55,
        723,
        245,
        11,
        919,
        704,
        117,
        835,
        301,
        220,
        367,
        454,
        804,
        529,
        256,
        63,
        298,
        9,
        867,
        844,
        448,
        532,
        249,
        677,
        205,
        659,
        306,
        57,
        452,
        50,
        65,
        833,
        85,
        525,
        717,
        792,
        479,
        265,
        101,
        285,
        394,
        809,
        650,
        631,
        70,
        898,
        759,
        541,
        169,
        986,
        683,
        770,
        615,
        243,
        939,
        636,
        195,
        931,
        592,
        686,
        950,
        558,
        340,
        768,
        616,
        36,
        282,
        516,
        103,
        896,
        458,
        147,
        42,
        552,
        648,
        211,
        157,
        818,
        972,
        104,
        752,
        64,
        630,
        409,
        735,
        246,
        825,
        856,
        401,
        223,
        675,
        118,
        587,
        320,
        622,
        729,
        553,
        973,
        524,
        882,
        328,
        352,
        499,
        381,
        237,
        780,
        891,
        252,
        667,
        457,
        886,
        107,
        87,
        404,
        39,
        387,
        971,
        669,
        612,
        264,
        710,
        368,
        604,
        208,
        963,
        414,
        732,
        542,
        983,
        548,
        976,
        92,
        197,
        315,
        439,
        881,
        369,
        940,
        226,
        571,
        859,
        916,
        709,
        137,
        202,
        755,
        30,
        24,
        688,
        672,
        966,
        288,
        657,
        1,
        497,
        883,
        531,
        26,
        364,
        483,
        712,
        489,
        984,
        71,
        20,
        408,
        35,
        764,
        674,
        862,
        347,
        83,
        115,
        942,
        293,
        262,
        843,
        186,
        641,
        827,
        478,
        326,
        692,
        745,
        210,
        584,
        876,
        769,
        564,
        429,
        708,
        248,
        213,
        875,
        757,
        363,
        711,
        373,
        826,
        750,
        756,
        786,
        124,
        805,
        268,
        581,
        149,
        343,
        870,
        123,
        602,
        914,
        60,
        869,
        807,
        537,
        900,
        370,
        405,
        936,
        700,
        487,
        758,
        506,
        420,
        59,
        399,
        523,
        923,
        270,
        840,
        424,
        152,
        459,
        481,
        179,
        313,
        172,
        91,
        944,
        664,
        603,
        554,
        773,
        945,
        488,
        783,
        415,
        455,
        108,
        619,
        307,
        928
    ],
    "Nb of functions evaluations": 400020,
    "Computational time in seconds": 5568.105991840363,
    "Stopping criterion in evaluations": 400000
}